p tdp 113 112
70 2
6 20
33 21
63 23
69 24
53 22
24 31
32 104
74 21
63 31
111 30
77 104
96 38
6 46
88 10
112 48
50 8
80 5
54 109
61 91
25 39
9 80
29 100
88 111
108 42
74 107
67 26
34 87
47 40
102 34
78 72
13 81
42 17
3 53
55 45
60 98
42 1
52 101
72 43
24 11
105 4
103 29
54 46
88 61
102 52
16 57
90 55
85 13
65 83
7 51
77 68
98 29
66 72
18 77
94 75
76 9
41 35
49 8
8 106
36 37
12 79
52 97
62 82
28 58
93 47
27 58
99 97
42 54
15 57
81 71
68 73
74 12
18 47
113 25
96 36
83 110
56 4
103 95
83 35
112 103
76 64
84 14
89 33
68 19
65 31
103 44
59 2
84 74
104 94
26 86
81 15
30 8
44 33
90 92
81 62
59 58
97 108
67 20
76 53
51 59
76 78
90 111
15 94
12 111
36 4
53 71
25 55
99 62
38 90
6 28
24 46
112 82
